
%FILE DATA:	Soccer Computational Problem for MiniZinc Models	%
%AUTHOR:	Jack Wall	%
%CONTACT:  	116397063@umail.ucc.ie			%
%LAST UPDATE:	03/12/2020, 10:36:46						%
%DESCRIPTION: 	130 games played with 26 games left				%


n=13; %number of teams

%Games to play
games=[|6,12|5,10|8,3|3,10|10,2|12,13|6,8|9,8|2,9|11,1|5,9|6,1|5,13|4,11|8,7|7,1|5,7|12,1|2,7|4,12|13,12|10,7|11,6|7,12|10,9|7,2|];

%Initial points
iPoints=[27,21,32,36,21,35,23,11,31,34,25,26,27];

%POSITION CONSTRAINTS
% [|teamID, operator, position|...]
% operators index:
%  1 for =  operator
%  2 for >  operator
%  3 for >= operator
%  4 for <  operator
%  5 for <= operator
positionConstraints=[|4,3,1|10,4,3|12,5,3|];